(declare-fun temp2099_1 () (_ BitVec 64))
(declare-fun temp2099_2 () (_ BitVec 64))
(declare-fun var82795 () (_ BitVec 64))
(declare-fun k!0 () Bool)
(declare-fun ARGNAME_input_NAMEEND_DIM () (_ BitVec 64))
(declare-fun temp2099_3 () (_ BitVec 64))
(declare-fun temp2099_4 () (_ BitVec 64))
(declare-fun ARGNAME_input_NAMEEND_DIMSIZE
             ()
             (Array (_ BitVec 64) (_ BitVec 64)))
(declare-fun temp2099_5 () (_ BitVec 64))
(declare-fun temp2099_6 () (_ BitVec 64))
(declare-fun temp2099_7 () (_ BitVec 64))
(declare-fun temp2099_8 () (_ BitVec 64))
(declare-fun temp2099_9 () (_ BitVec 64))
(declare-fun temp2099_10 () (_ BitVec 64))
(declare-fun temp2099_11 () (_ BitVec 64))
(declare-fun temp2099_12 () (_ BitVec 64))
(declare-fun temp2099_13 () (_ BitVec 64))
(declare-fun temp2099_14 () (_ BitVec 64))
(declare-fun temp2099_15 () (_ BitVec 64))
(declare-fun temp2099_16 () (_ BitVec 64))
(declare-fun temp2099_17 () (_ BitVec 64))
(declare-fun temp2099_18 () (_ BitVec 64))
(declare-fun temp2099_19 () (_ BitVec 64))
(declare-fun temp2099_20 () (_ BitVec 64))
(declare-fun temp2099_21 () (_ BitVec 64))
(declare-fun var82808 () (_ BitVec 64))
(declare-fun temp2099_22 () (_ BitVec 64))
(declare-fun temp2099_23 () (_ BitVec 64))
(declare-fun var82809 () (_ BitVec 64))
(declare-fun temp2099_25 () (_ BitVec 64))
(declare-fun temp2099_24 () (_ BitVec 64))
(declare-fun temp2099_27 () (_ BitVec 64))
(declare-fun temp2099_26 () (_ BitVec 64))
(declare-fun ARGNAME_split_sizes_NAMEEND_LEN () (_ BitVec 64))
(declare-fun var331074 () (_ BitVec 64))
(declare-fun temp2099_28 () (_ BitVec 64))
(declare-fun temp2099_29 () (_ BitVec 64))
(declare-fun var396615 () (_ BitVec 64))
(declare-fun var462162 () (_ BitVec 64))
(declare-fun var265101 () (_ BitVec 64))
(declare-fun temp2099_30 () (_ BitVec 64))
(declare-fun var999067 () (_ BitVec 64))
(declare-fun temp2099_31 () (_ BitVec 64))
(declare-fun var999116 () (_ BitVec 64))
(declare-fun temp2099_32 () (_ BitVec 64))
(declare-fun temp2099_33 () (_ BitVec 64))
(declare-fun var1249866 () (_ BitVec 64))
(declare-fun var1249868 () (_ BitVec 64))
(declare-fun temp2099_34 () (_ BitVec 64))
(declare-fun var1968812 () (_ BitVec 64))
(declare-fun temp2099_35 () (_ BitVec 64))
(declare-fun var2296492 () (_ BitVec 64))
(declare-fun temp2099_36 () (_ BitVec 64))
(declare-fun var2495050 () (_ BitVec 64))
(declare-fun var2495052 () (_ BitVec 64))
(declare-fun temp2099_37 () (_ BitVec 64))
(declare-fun var999233 () (_ BitVec 64))
(declare-fun temp2099_38 () (_ BitVec 64))
(declare-fun temp2099_39 () (_ BitVec 64))
(declare-fun var999297 () (_ BitVec 64))
(declare-fun var999309 () (_ BitVec 64))
(declare-fun temp2099_40 () (_ BitVec 64))
(declare-fun var3607212 () (_ BitVec 64))
(declare-fun temp2099_41 () (_ BitVec 64))
(declare-fun var999321 () (_ BitVec 64))
(declare-fun var999322 () (_ BitVec 64))
(declare-fun var999323 () (_ BitVec 64))
(declare-fun var999324 () (_ BitVec 64))
(declare-fun temp2099_42 () (_ BitVec 64))
(declare-fun var4132738 () (_ BitVec 64))
(declare-fun temp2099_43 () (_ BitVec 64))
(declare-fun var4209308 () (_ BitVec 64))
(declare-fun var4209309 () (_ BitVec 64))
(declare-fun var4209310 () (_ BitVec 64))
(declare-fun var4209312 () (_ BitVec 64))
(declare-fun temp2099_44 () (_ BitVec 64))
(declare-fun temp2099_45 () (_ BitVec 64))
(declare-fun var4924281 () (_ BitVec 64))
(declare-fun var4924285 () (_ BitVec 64))
(declare-fun temp2099_46 () (_ BitVec 64))
(declare-fun temp2099_47 () (_ BitVec 64))
(declare-fun var5710713 () (_ BitVec 64))
(declare-fun var5710717 () (_ BitVec 64))
(declare-fun temp2099_48 () (_ BitVec 64))
(declare-fun var5710745 () (_ BitVec 64))
(declare-fun temp2099_49 () (_ BitVec 64))
(declare-fun var4209473 () (_ BitVec 64))
(declare-fun temp2099_51 () (_ BitVec 64))
(declare-fun temp2099_50 () (_ BitVec 64))
(declare-fun var82851 () (_ BitVec 64))
(declare-fun var82852 () (_ BitVec 64))
(declare-fun temp2099_52 () (_ BitVec 64))
(assert (= temp2099_1 #x0000000000000000))
(assert (= var82795
   (ite (= ARGNAME_input_NAMEEND_DIM temp2099_1)
        #x0000000000000001
        #x0000000000000000)))
(assert (= temp2099_2 #x0000000000000000))
(assert (= var82795 temp2099_2))
(assert (= temp2099_3 #x0000000000000000))
(assert (= temp2099_4 temp2099_3))
(assert (= temp2099_5 (select ARGNAME_input_NAMEEND_DIMSIZE temp2099_4)))
(assert (= temp2099_6 #x0000000000000001))
(assert (= temp2099_7 temp2099_6))
(assert (= temp2099_8 (select ARGNAME_input_NAMEEND_DIMSIZE temp2099_7)))
(assert (= temp2099_9 #x0000000000000002))
(assert (= temp2099_10 temp2099_9))
(assert (= temp2099_11 (select ARGNAME_input_NAMEEND_DIMSIZE temp2099_10)))
(assert (= temp2099_12 #x0000000000000003))
(assert (= temp2099_13 temp2099_12))
(assert (= temp2099_14 (select ARGNAME_input_NAMEEND_DIMSIZE temp2099_13)))
(assert (= temp2099_15 #x0000000000000004))
(assert (= temp2099_16 temp2099_15))
(assert (= temp2099_17 (select ARGNAME_input_NAMEEND_DIMSIZE temp2099_16)))
(assert (= temp2099_18 #x0000000000000005))
(assert (= temp2099_19 temp2099_18))
(assert (= temp2099_20 (select ARGNAME_input_NAMEEND_DIMSIZE temp2099_19)))
(assert (= temp2099_21 #x0000000000000000))
(assert (= temp2099_22
   (ite (bvslt var82808 temp2099_21)
        (bvadd ARGNAME_input_NAMEEND_DIM var82808)
        var82808)))
(assert (= temp2099_23 (select ARGNAME_input_NAMEEND_DIMSIZE temp2099_22)))
(assert (= var82809 temp2099_23))
(assert (bvslt (ite (bvslt var82808 temp2099_21)
            (bvadd ARGNAME_input_NAMEEND_DIM var82808)
            var82808)
       ARGNAME_input_NAMEEND_DIM))
(assert (= temp2099_25 #x0000000000000000))
(assert (= temp2099_24 temp2099_25))
(assert (= temp2099_27 #x0000000000000000))
(assert (= temp2099_26 temp2099_27))
(assert (= var331074
   (ite (bvslt temp2099_26 ARGNAME_split_sizes_NAMEEND_LEN)
        #x0000000000000001
        #x0000000000000000)))
(assert (= temp2099_28
   (ite (= var331074 #x0000000000000001)
        ARGNAME_split_sizes_NAMEEND_LEN
        temp2099_26)))
(assert (= temp2099_29 #x0000000000000000))
(assert (= var396615 temp2099_29))
(assert (= var462162 var396615))
(assert (= var265101 var462162))
(assert (= temp2099_30 #x0000000000000001))
(assert (= var999067 temp2099_30))
(assert (= temp2099_31 #x0000000000000000))
(assert (= var999116
   (ite (= ARGNAME_input_NAMEEND_DIM temp2099_31)
        #x0000000000000001
        #x0000000000000000)))
(assert (= temp2099_32 #x0000000000000000))
(assert (= var999116 temp2099_32))
(assert (= temp2099_33 #x0000000000000005))
(assert (= var1249866 temp2099_33))
(assert (= var1249868 var1249866))
(assert (= temp2099_34 #x0000000000000001))
(assert (= var1968812 temp2099_34))
(assert (= temp2099_35 #x0000000000000001))
(assert (= var2296492 temp2099_35))
(assert (= temp2099_36 #x0000000000000005))
(assert (= var2495050 temp2099_36))
(assert (= var2495052 var2495050))
(assert (= temp2099_37 #x0000000000000001))
(assert (= var999233
   (ite (bvslt var999067 temp2099_37) #x0000000000000001 #x0000000000000000)))
(assert (= temp2099_38 #x0000000000000000))
(assert (= var999233 temp2099_38))
(assert (= temp2099_39 #x0000000000000000))
(assert (= var999297 temp2099_39))
(assert (= var999309 var999297))
(assert (= temp2099_40 #x0000000000000002))
(assert (= var3607212 temp2099_40))
(assert (= temp2099_41 #xffffffffffffffff))
(assert (= var999321 (bvxor var999297 temp2099_41)))
(assert (= var999322 (bvadd var999321 var999067)))
(assert (= var999323 (bvadd var999322 var999309)))
(assert (= var999324 (bvsdiv var999323 var999067)))
(assert (= temp2099_42 #x0000000000080000))
(assert (= var4132738 temp2099_42))
(assert (= temp2099_43 #x0000000000000000))
(assert (= var4209308 temp2099_43))
(assert (= var4209309 var999297))
(assert (= var4209310 var999309))
(assert (= var4209312 var999067))
(assert (= temp2099_44 #x0000000000000000))
(assert (= var4209308 temp2099_44))
(assert (= temp2099_45 #x0000000000000000))
(assert (= var4924281 temp2099_45))
(assert (= var4924285 var4209312))
(assert (= temp2099_46 #x0000000000000000))
(assert (= var4209308 temp2099_46))
(assert (= temp2099_47 #x0000000000000000))
(assert (= var5710713 temp2099_47))
(assert (= var5710717 var4209312))
(assert (= temp2099_48 #x0000000000000000))
(assert (= var5710745 temp2099_48))
(assert (= temp2099_49 #x0000000000000000))
(assert (= var5710745 temp2099_49))
(assert (= var4209473 var4209308))
(assert (= temp2099_51 #x0000000000000000))
(assert (= temp2099_50 temp2099_51))
(assert (= var82851 var82809))
(assert (= var82852
   (ite (= temp2099_24 var82851) #x0000000000000001 #x0000000000000000)))
(assert (= temp2099_52 #x0000000000000001))
(assert (= var82852 temp2099_52))
(model-add temp2099_1 () (_ BitVec 64) #x0000000000000000)
(model-add temp2099_2 () (_ BitVec 64) #x0000000000000000)
(model-add var82795 () (_ BitVec 64) #x0000000000000000)
(model-del k!0)
(model-add ARGNAME_input_NAMEEND_DIM
           ()
           (_ BitVec 64)
           (ite k!0 #x0000000000000000 (bvnot #x0000000000000000)))




